p tw 60 65
1 2
2 13
3 4
3 41
4 5
5 6
6 7
7 8
8 9
9 10
10 11
10 41
11 12
12 14
13 24
14 15
15 16
16 55
17 18
18 19
19 20
19 41
20 21
21 22
22 23
23 25
24 35
24 17
25 26
26 27
27 28
27 41
28 29
29 30
30 31
31 32
32 33
33 34
34 36
34 41
35 46
36 37
37 38
38 39
39 40
40 55
41 42
42 43
43 44
44 45
45 47
46 57
47 48
48 49
49 50
50 51
51 52
52 53
53 54
54 55
55 56
57 58
58 59
59 60
60 3
